0.750000 0.250000 0.500000
5
4 2 3 4 5 
4 6 7 8 9 
4 10 11 12 13 
4 14 15 16 17 
4 18 19 20 21 
1 1 
1 2 
1 2 
1 2 
1 2 
1 2 
1 2 
1 2 
1 2 
1 2 
1 2 
1 2 
1 2 
1 3 
1 3 
1 3 
1 3 
1 3 
1 3 
1 3 
1 3 
1 3 
1 3 
1 3 
1 3 
1 4 
1 4 
1 4 
1 4 
1 4 
1 4 
1 4 
1 4 
1 4 
1 4 
1 4 
1 4 
1 5 
1 5 
1 5 
1 5 
1 5 
1 5 
1 5 
1 5 
1 5 
1 5 
1 5 
1 5 
1 1 
1 6 
1 6 
1 6 
1 6 
1 6 
1 6 
1 6 
1 6 
1 6 
1 6 
1 6 
1 6 
1 7 
1 7 
1 7 
1 7 
1 7 
1 7 
1 7 
1 7 
1 7 
1 7 
1 7 
1 7 
1 8 
1 8 
1 8 
1 8 
1 8 
1 8 
1 8 
1 8 
1 8 
1 8 
1 8 
1 8 
1 9 
1 9 
1 9 
1 9 
1 9 
2 9 2 
1 9 
2 9 2 
1 9 
3 9 2 6 
3 9 2 6 
3 9 2 6 
1 1 
1 10 
1 10 
1 10 
1 10 
1 10 
1 10 
1 10 
2 10 9 
1 10 
2 10 9 
1 10 
2 10 9 
1 11 
1 11 
1 11 
1 11 
1 11 
1 11 
1 11 
1 11 
1 11 
1 11 
1 11 
1 11 
1 12 
1 12 
1 12 
1 12 
1 12 
1 12 
1 12 
1 12 
1 12 
1 12 
1 12 
1 12 
1 13 
1 13 
1 13 
1 13 
1 13 
2 13 3 
2 13 3 
2 13 3 
2 13 3 
2 13 3 
1 13 
2 13 3 
1 1 
1 14 
1 14 
1 14 
1 14 
1 14 
1 14 
1 14 
1 14 
1 14 
3 14 10 9 
3 14 10 9 
3 14 10 9 
3 14 10 9 
3 14 10 9 
3 14 10 9 
3 14 10 9 
3 14 10 9 
3 14 10 9 
3 14 10 9 
1 14 
1 14 
3 14 10 9 
1 15 
1 15 
1 15 
1 15 
1 15 
1 15 
1 15 
1 15 
1 15 
1 15 
1 15 
2 15 4 
2 15 4 
1 15 
2 15 4 
2 15 4 
1 15 
1 15 
2 15 4 
1 15 
1 15 
2 15 4 
1 16 
1 16 
1 16 
1 16 
1 16 
1 16 
1 16 
1 16 
1 16 
1 16 
1 16 
1 16 
1 16 
1 16 
1 16 
1 16 
1 16 
1 16 
1 16 
1 16 
1 16 
1 16 
1 17 
2 17 5 
1 17 
2 17 5 
3 17 5 7 
3 17 5 7 
3 17 5 7 
3 17 5 7 
2 17 5 
3 17 5 7 
3 17 5 7 
3 17 5 7 
1 18 
1 18 
1 18 
1 18 
1 18 
1 18 
1 18 
1 18 
1 18 
1 18 
1 18 
1 18 
1 19 
1 19 
1 19 
1 19 
1 19 
1 19 
2 19 8 
1 19 
2 19 8 
2 19 8 
1 19 
2 19 8 
1 20 
1 20 
1 20 
1 20 
1 20 
1 20 
1 20 
1 20 
1 20 
1 20 
1 20 
1 20 
1 21 
1 21 
1 21 
1 21 
1 21 
1 21 
1 21 
1 21 
1 21 
1 21 
1 21 
1 21 
1 1 
